69
Route #1: 1 12 25 
Route #2: 2 
Route #3: 3 23 37 
Route #4: 4 
Route #5: 5 
Route #6: 6 26 
Route #7: 7 
Route #8: 8 27 
Route #9: 9 30 
Route #10: 10 
Route #11: 11 
Route #12: 13 22 
Route #13: 14 29 
Route #14: 15 32 44 
Route #15: 16 34 54 
Route #16: 17 28 
Route #17: 18 33 
Route #18: 19 38 
Route #19: 20 36 
Route #20: 21 39 
Route #21: 24 41 63 
Route #22: 31 53 69 
Route #23: 35 48 62 79 
Route #24: 40 64 
Route #25: 42 72 
Route #26: 43 49 56 66 
Route #27: 45 61 
Route #28: 46 71 
Route #29: 47 70 
Route #30: 50 76 
Route #31: 51 75 
Route #32: 52 82 
Route #33: 55 73 81 
Route #34: 57 85 
Route #35: 58 78 
Route #36: 59 99 
Route #37: 60 67 87 
Route #38: 65 96 
Route #39: 68 80 102 
Route #40: 74 
Route #41: 77 94 105 
Route #42: 83 93 111 
Route #43: 84 107 
Route #44: 86 127 
Route #45: 88 110 129 
Route #46: 89 98 116 134 
Route #47: 90 108 121 
Route #48: 91 114 
Route #49: 92 113 
Route #50: 95 97 106 130 
Route #51: 100 120 
Route #52: 101 124 
Route #53: 103 122 135 
Route #54: 104 123 148 
Route #55: 109 137 
Route #56: 112 141 
Route #57: 115 146 
Route #58: 117 143 
Route #59: 118 144 
Route #60: 119 132 
Route #61: 125 145 
Route #62: 126 150 
Route #63: 128 149 
Route #64: 131 
Route #65: 133 
Route #66: 136 147 
Route #67: 138 142 
Route #68: 139 
Route #69: 140 
Cost 110189.0
